\ Model birth-death-regulation-capture-efficiency
\ LP format - for model browsing. Use MPS format to capture full model detail.
Minimize
  k_reg
Subject To
 R0: k_deg_2 = 1
 B_lb_0,_0: p[0,0] + 0.2 p[0,1] + 0.04 p[0,2] + 0.008 p[0,3]
   + 0.0016 p[0,4] + 0.00032 p[0,5] + 0.2 p[1,0] + 0.04 p[1,1]
   + 0.008 p[1,2] + 0.0016 p[1,3] + 0.00032 p[1,4] + 6.4e-05 p[1,5]
   + 0.04 p[2,0] + 0.008 p[2,1] + 0.0016 p[2,2] + 0.00032 p[2,3]
   + 6.4e-05 p[2,4] + 1.28e-05 p[2,5] + 0.008 p[3,0] + 0.0016 p[3,1]
   + 0.00032 p[3,2] + 6.4e-05 p[3,3] + 1.28e-05 p[3,4] + 2.56e-06 p[3,5]
   + 0.0016 p[4,0] + 0.00032 p[4,1] + 6.4e-05 p[4,2] + 1.28e-05 p[4,3]
   + 2.56e-06 p[4,4] + 5.12e-07 p[4,5] + 0.00032 p[5,0] + 6.4e-05 p[5,1]
   + 1.28e-05 p[5,2] + 2.56e-06 p[5,3] + 5.12e-07 p[5,4] + 1.024e-07 p[5,5]
   >= 0.23490625
 B_ub_0,_0: p[0,0] + 0.2 p[0,1] + 0.04 p[0,2] + 0.008 p[0,3]
   + 0.0016 p[0,4] + 0.00032 p[0,5] + 0.2 p[1,0] + 0.04 p[1,1]
   + 0.008 p[1,2] + 0.0016 p[1,3] + 0.00032 p[1,4] + 6.4e-05 p[1,5]
   + 0.04 p[2,0] + 0.008 p[2,1] + 0.0016 p[2,2] + 0.00032 p[2,3]
   + 6.4e-05 p[2,4] + 1.28e-05 p[2,5] + 0.008 p[3,0] + 0.0016 p[3,1]
   + 0.00032 p[3,2] + 6.4e-05 p[3,3] + 1.28e-05 p[3,4] + 2.56e-06 p[3,5]
   + 0.0016 p[4,0] + 0.00032 p[4,1] + 6.4e-05 p[4,2] + 1.28e-05 p[4,3]
   + 2.56e-06 p[4,4] + 5.12e-07 p[4,5] + 0.00032 p[5,0] + 6.4e-05 p[5,1]
   + 1.28e-05 p[5,2] + 2.56e-06 p[5,3] + 5.12e-07 p[5,4] + 1.024e-07 p[5,5]
   <= 0.3012
 B_lb_0,_1: 0.8 p[0,1] + 0.32 p[0,2] + 0.096 p[0,3] + 0.0256 p[0,4]
   + 0.0064 p[0,5] + 0.16 p[1,1] + 0.064 p[1,2] + 0.0192 p[1,3]
   + 0.00512 p[1,4] + 0.00128 p[1,5] + 0.032 p[2,1] + 0.0128 p[2,2]
   + 0.00384 p[2,3] + 0.001024 p[2,4] + 0.000256 p[2,5] + 0.0064 p[3,1]
   + 0.00256 p[3,2] + 0.000768 p[3,3] + 0.0002048 p[3,4] + 5.12e-05 p[3,5]
   + 0.00128 p[4,1] + 0.000512 p[4,2] + 0.0001536 p[4,3] + 4.096e-05 p[4,4]
   + 1.024e-05 p[4,5] + 0.000256 p[5,1] + 0.0001024 p[5,2]
   + 3.072e-05 p[5,3] + 8.192e-06 p[5,4] + 2.048e-06 p[5,5] >= 0.12810625
 B_ub_0,_1: 0.8 p[0,1] + 0.32 p[0,2] + 0.096 p[0,3] + 0.0256 p[0,4]
   + 0.0064 p[0,5] + 0.16 p[1,1] + 0.064 p[1,2] + 0.0192 p[1,3]
   + 0.00512 p[1,4] + 0.00128 p[1,5] + 0.032 p[2,1] + 0.0128 p[2,2]
   + 0.00384 p[2,3] + 0.001024 p[2,4] + 0.000256 p[2,5] + 0.0064 p[3,1]
   + 0.00256 p[3,2] + 0.000768 p[3,3] + 0.0002048 p[3,4] + 5.12e-05 p[3,5]
   + 0.00128 p[4,1] + 0.000512 p[4,2] + 0.0001536 p[4,3] + 4.096e-05 p[4,4]
   + 1.024e-05 p[4,5] + 0.000256 p[5,1] + 0.0001024 p[5,2]
   + 3.072e-05 p[5,3] + 8.192e-06 p[5,4] + 2.048e-06 p[5,5] <= 0.190405
 B_lb_0,_2: 0.64 p[0,2] + 0.384 p[0,3] + 0.1536 p[0,4] + 0.0512 p[0,5]
   + 0.128 p[1,2] + 0.0768 p[1,3] + 0.03072 p[1,4] + 0.01024 p[1,5]
   + 0.0256 p[2,2] + 0.01536 p[2,3] + 0.006144 p[2,4] + 0.002048 p[2,5]
   + 0.00512 p[3,2] + 0.003072 p[3,3] + 0.0012288 p[3,4] + 0.0004096 p[3,5]
   + 0.001024 p[4,2] + 0.0006144 p[4,3] + 0.00024576 p[4,4]
   + 8.192e-05 p[4,5] + 0.0002048 p[5,2] + 0.00012288 p[5,3]
   + 4.9152e-05 p[5,4] + 1.6384e-05 p[5,5] >= 0.01710125
 B_ub_0,_2: 0.64 p[0,2] + 0.384 p[0,3] + 0.1536 p[0,4] + 0.0512 p[0,5]
   + 0.128 p[1,2] + 0.0768 p[1,3] + 0.03072 p[1,4] + 0.01024 p[1,5]
   + 0.0256 p[2,2] + 0.01536 p[2,3] + 0.006144 p[2,4] + 0.002048 p[2,5]
   + 0.00512 p[3,2] + 0.003072 p[3,3] + 0.0012288 p[3,4] + 0.0004096 p[3,5]
   + 0.001024 p[4,2] + 0.0006144 p[4,3] + 0.00024576 p[4,4]
   + 8.192e-05 p[4,5] + 0.0002048 p[5,2] + 0.00012288 p[5,3]
   + 4.9152e-05 p[5,4] + 1.6384e-05 p[5,5] <= 0.0718
 B_lb_0,_3: 0.512 p[0,3] + 0.4096 p[0,4] + 0.2048 p[0,5] + 0.1024 p[1,3]
   + 0.08192 p[1,4] + 0.04096 p[1,5] + 0.02048 p[2,3] + 0.016384 p[2,4]
   + 0.008192 p[2,5] + 0.004096 p[3,3] + 0.0032768 p[3,4]
   + 0.0016384 p[3,5] + 0.0008192 p[4,3] + 0.00065536 p[4,4]
   + 0.00032768 p[4,5] + 0.00016384 p[5,3] + 0.000131072 p[5,4]
   + 6.5536e-05 p[5,5] >= -0.02909375
 B_ub_0,_3: 0.512 p[0,3] + 0.4096 p[0,4] + 0.2048 p[0,5] + 0.1024 p[1,3]
   + 0.08192 p[1,4] + 0.04096 p[1,5] + 0.02048 p[2,3] + 0.016384 p[2,4]
   + 0.008192 p[2,5] + 0.004096 p[3,3] + 0.0032768 p[3,4]
   + 0.0016384 p[3,5] + 0.0008192 p[4,3] + 0.00065536 p[4,4]
   + 0.00032768 p[4,5] + 0.00016384 p[5,3] + 0.000131072 p[5,4]
   + 6.5536e-05 p[5,5] <= 0.0188
 B_lb_0,_4: 0.4096 p[0,4] + 0.4096 p[0,5] + 0.08192 p[1,4] + 0.08192 p[1,5]
   + 0.016384 p[2,4] + 0.016384 p[2,5] + 0.0032768 p[3,4]
   + 0.0032768 p[3,5] + 0.00065536 p[4,4] + 0.00065536 p[4,5]
   + 0.000131072 p[5,4] + 0.000131072 p[5,5] >= -0.04029375
 B_ub_0,_4: 0.4096 p[0,4] + 0.4096 p[0,5] + 0.08192 p[1,4] + 0.08192 p[1,5]
   + 0.016384 p[2,4] + 0.016384 p[2,5] + 0.0032768 p[3,4]
   + 0.0032768 p[3,5] + 0.00065536 p[4,4] + 0.00065536 p[4,5]
   + 0.000131072 p[5,4] + 0.000131072 p[5,5] <= 0.0034
 B_lb_1,_0: 0.8 p[1,0] + 0.16 p[1,1] + 0.032 p[1,2] + 0.0064 p[1,3]
   + 0.00128 p[1,4] + 0.000256 p[1,5] + 0.32 p[2,0] + 0.064 p[2,1]
   + 0.0128 p[2,2] + 0.00256 p[2,3] + 0.000512 p[2,4] + 0.0001024 p[2,5]
   + 0.096 p[3,0] + 0.0192 p[3,1] + 0.00384 p[3,2] + 0.000768 p[3,3]
   + 0.0001536 p[3,4] + 3.072e-05 p[3,5] + 0.0256 p[4,0] + 0.00512 p[4,1]
   + 0.001024 p[4,2] + 0.0002048 p[4,3] + 4.096e-05 p[4,4]
   + 8.192e-06 p[4,5] + 0.0064 p[5,0] + 0.00128 p[5,1] + 0.000256 p[5,2]
   + 5.12e-05 p[5,3] + 1.024e-05 p[5,4] + 2.048e-06 p[5,5] >= 0.13190625
 B_ub_1,_0: 0.8 p[1,0] + 0.16 p[1,1] + 0.032 p[1,2] + 0.0064 p[1,3]
   + 0.00128 p[1,4] + 0.000256 p[1,5] + 0.32 p[2,0] + 0.064 p[2,1]
   + 0.0128 p[2,2] + 0.00256 p[2,3] + 0.000512 p[2,4] + 0.0001024 p[2,5]
   + 0.096 p[3,0] + 0.0192 p[3,1] + 0.00384 p[3,2] + 0.000768 p[3,3]
   + 0.0001536 p[3,4] + 3.072e-05 p[3,5] + 0.0256 p[4,0] + 0.00512 p[4,1]
   + 0.001024 p[4,2] + 0.0002048 p[4,3] + 4.096e-05 p[4,4]
   + 8.192e-06 p[4,5] + 0.0064 p[5,0] + 0.00128 p[5,1] + 0.000256 p[5,2]
   + 5.12e-05 p[5,3] + 1.024e-05 p[5,4] + 2.048e-06 p[5,5] <= 0.1946
 B_lb_1,_1: 0.64 p[1,1] + 0.256 p[1,2] + 0.0768 p[1,3] + 0.02048 p[1,4]
   + 0.00512 p[1,5] + 0.256 p[2,1] + 0.1024 p[2,2] + 0.03072 p[2,3]
   + 0.008192 p[2,4] + 0.002048 p[2,5] + 0.0768 p[3,1] + 0.03072 p[3,2]
   + 0.009216 p[3,3] + 0.0024576 p[3,4] + 0.0006144 p[3,5] + 0.02048 p[4,1]
   + 0.008192 p[4,2] + 0.0024576 p[4,3] + 0.00065536 p[4,4]
   + 0.00016384 p[4,5] + 0.00512 p[5,1] + 0.002048 p[5,2]
   + 0.0006144 p[5,3] + 0.00016384 p[5,4] + 4.096e-05 p[5,5] >= 0.04910625
 B_ub_1,_1: 0.64 p[1,1] + 0.256 p[1,2] + 0.0768 p[1,3] + 0.02048 p[1,4]
   + 0.00512 p[1,5] + 0.256 p[2,1] + 0.1024 p[2,2] + 0.03072 p[2,3]
   + 0.008192 p[2,4] + 0.002048 p[2,5] + 0.0768 p[3,1] + 0.03072 p[3,2]
   + 0.009216 p[3,3] + 0.0024576 p[3,4] + 0.0006144 p[3,5] + 0.02048 p[4,1]
   + 0.008192 p[4,2] + 0.0024576 p[4,3] + 0.00065536 p[4,4]
   + 0.00016384 p[4,5] + 0.00512 p[5,1] + 0.002048 p[5,2]
   + 0.0006144 p[5,3] + 0.00016384 p[5,4] + 4.096e-05 p[5,5] <= 0.1068
 B_lb_1,_2: 0.512 p[1,2] + 0.3072 p[1,3] + 0.12288 p[1,4] + 0.04096 p[1,5]
   + 0.2048 p[2,2] + 0.12288 p[2,3] + 0.049152 p[2,4] + 0.016384 p[2,5]
   + 0.06144 p[3,2] + 0.036864 p[3,3] + 0.0147456 p[3,4] + 0.0049152 p[3,5]
   + 0.016384 p[4,2] + 0.0098304 p[4,3] + 0.00393216 p[4,4]
   + 0.00131072 p[4,5] + 0.004096 p[5,2] + 0.0024576 p[5,3]
   + 0.00098304 p[5,4] + 0.00032768 p[5,5] >= -0.01649375
 B_ub_1,_2: 0.512 p[1,2] + 0.3072 p[1,3] + 0.12288 p[1,4] + 0.04096 p[1,5]
   + 0.2048 p[2,2] + 0.12288 p[2,3] + 0.049152 p[2,4] + 0.016384 p[2,5]
   + 0.06144 p[3,2] + 0.036864 p[3,3] + 0.0147456 p[3,4] + 0.0049152 p[3,5]
   + 0.016384 p[4,2] + 0.0098304 p[4,3] + 0.00393216 p[4,4]
   + 0.00131072 p[4,5] + 0.004096 p[5,2] + 0.0024576 p[5,3]
   + 0.00098304 p[5,4] + 0.00032768 p[5,5] <= 0.0338
 B_lb_1,_3: 0.4096 p[1,3] + 0.32768 p[1,4] + 0.16384 p[1,5]
   + 0.16384 p[2,3] + 0.131072 p[2,4] + 0.065536 p[2,5] + 0.049152 p[3,3]
   + 0.0393216 p[3,4] + 0.0196608 p[3,5] + 0.0131072 p[4,3]
   + 0.0104857600000011 p[4,4] + 0.00524288 p[4,5] + 0.0032768 p[5,3]
   + 0.00262144 p[5,4] + 0.00131072 p[5,5] >= -0.03789375
 B_ub_1,_3: 0.4096 p[1,3] + 0.32768 p[1,4] + 0.16384 p[1,5]
   + 0.16384 p[2,3] + 0.131072 p[2,4] + 0.065536 p[2,5] + 0.049152 p[3,3]
   + 0.0393216 p[3,4] + 0.0196608 p[3,5] + 0.0131072 p[4,3]
   + 0.0104857600000011 p[4,4] + 0.00524288 p[4,5] + 0.0032768 p[5,3]
   + 0.00262144 p[5,4] + 0.00131072 p[5,5] <= 0.007005
 B_lb_1,_4: 0.32768 p[1,4] + 0.32768 p[1,5] + 0.131072 p[2,4]
   + 0.131072 p[2,5] + 0.0393216 p[3,4] + 0.0393216 p[3,5]
   + 0.0104857600000011 p[4,4] + 0.0104857599999996 p[4,5]
   + 0.00262144 p[5,4] + 0.00262144 p[5,5] >= -0.04109375
 B_ub_1,_4: 0.32768 p[1,4] + 0.32768 p[1,5] + 0.131072 p[2,4]
   + 0.131072 p[2,5] + 0.0393216 p[3,4] + 0.0393216 p[3,5]
   + 0.0104857600000011 p[4,4] + 0.0104857599999996 p[4,5]
   + 0.00262144 p[5,4] + 0.00262144 p[5,5] <= 1
 B_lb_2,_0: 0.64 p[2,0] + 0.128 p[2,1] + 0.0256 p[2,2] + 0.00512 p[2,3]
   + 0.001024 p[2,4] + 0.0002048 p[2,5] + 0.384 p[3,0] + 0.0768 p[3,1]
   + 0.01536 p[3,2] + 0.003072 p[3,3] + 0.0006144 p[3,4]
   + 0.00012288 p[3,5] + 0.1536 p[4,0] + 0.03072 p[4,1] + 0.006144 p[4,2]
   + 0.0012288 p[4,3] + 0.00024576 p[4,4] + 4.9152e-05 p[4,5]
   + 0.0512 p[5,0] + 0.01024 p[5,1] + 0.002048 p[5,2] + 0.0004096 p[5,3]
   + 8.192e-05 p[5,4] + 1.6384e-05 p[5,5] >= 0.02310625
 B_ub_2,_0: 0.64 p[2,0] + 0.128 p[2,1] + 0.0256 p[2,2] + 0.00512 p[2,3]
   + 0.001024 p[2,4] + 0.0002048 p[2,5] + 0.384 p[3,0] + 0.0768 p[3,1]
   + 0.01536 p[3,2] + 0.003072 p[3,3] + 0.0006144 p[3,4]
   + 0.00012288 p[3,5] + 0.1536 p[4,0] + 0.03072 p[4,1] + 0.006144 p[4,2]
   + 0.0012288 p[4,3] + 0.00024576 p[4,4] + 4.9152e-05 p[4,5]
   + 0.0512 p[5,0] + 0.01024 p[5,1] + 0.002048 p[5,2] + 0.0004096 p[5,3]
   + 8.192e-05 p[5,4] + 1.6384e-05 p[5,5] <= 0.0784
 B_lb_2,_1: 0.512 p[2,1] + 0.2048 p[2,2] + 0.06144 p[2,3] + 0.016384 p[2,4]
   + 0.004096 p[2,5] + 0.3072 p[3,1] + 0.12288 p[3,2] + 0.036864 p[3,3]
   + 0.0098304 p[3,4] + 0.0024576 p[3,5] + 0.12288 p[4,1] + 0.049152 p[4,2]
   + 0.0147456 p[4,3] + 0.00393216 p[4,4] + 0.00098304 p[4,5]
   + 0.04096 p[5,1] + 0.016384 p[5,2] + 0.0049152 p[5,3]
   + 0.00131072 p[5,4] + 0.00032768 p[5,5] >= -0.01489375
 B_ub_2,_1: 0.512 p[2,1] + 0.2048 p[2,2] + 0.06144 p[2,3] + 0.016384 p[2,4]
   + 0.004096 p[2,5] + 0.3072 p[3,1] + 0.12288 p[3,2] + 0.036864 p[3,3]
   + 0.0098304 p[3,4] + 0.0024576 p[3,5] + 0.12288 p[4,1] + 0.049152 p[4,2]
   + 0.0147456 p[4,3] + 0.00393216 p[4,4] + 0.00098304 p[4,5]
   + 0.04096 p[5,1] + 0.016384 p[5,2] + 0.0049152 p[5,3]
   + 0.00131072 p[5,4] + 0.00032768 p[5,5] <= 0.036
 B_lb_2,_2: 0.4096 p[2,2] + 0.24576 p[2,3] + 0.098304 p[2,4]
   + 0.032768 p[2,5] + 0.24576 p[3,2] + 0.147456 p[3,3] + 0.0589824 p[3,4]
   + 0.0196608 p[3,5] + 0.098304 p[4,2] + 0.0589824 p[4,3]
   + 0.0235929600000026 p[4,4] + 0.00786432 p[4,5] + 0.032768 p[5,2]
   + 0.0196608 p[5,3] + 0.00786432 p[5,4] + 0.00262144 p[5,5]
   >= -0.03689375
 B_ub_2,_2: 0.4096 p[2,2] + 0.24576 p[2,3] + 0.098304 p[2,4]
   + 0.032768 p[2,5] + 0.24576 p[3,2] + 0.147456 p[3,3] + 0.0589824 p[3,4]
   + 0.0196608 p[3,5] + 0.098304 p[4,2] + 0.0589824 p[4,3]
   + 0.0235929600000026 p[4,4] + 0.00786432 p[4,5] + 0.032768 p[5,2]
   + 0.0196608 p[5,3] + 0.00786432 p[5,4] + 0.00262144 p[5,5] <= 0.0084
 B_lb_2,_3: 0.32768 p[2,3] + 0.262144 p[2,4] + 0.131072 p[2,5]
   + 0.196608 p[3,3] + 0.1572864000000015 p[3,4] + 0.0786432 p[3,5]
   + 0.0786432 p[4,3] + 0.0629145600000068 p[4,4]
   + 0.0314572799999987 p[4,5] + 0.0262144 p[5,3]
   + 0.0209715199999991 p[5,4] + 0.0104857600000005 p[5,5] >= -0.04109375
 B_ub_2,_3: 0.32768 p[2,3] + 0.262144 p[2,4] + 0.131072 p[2,5]
   + 0.196608 p[3,3] + 0.1572864000000015 p[3,4] + 0.0786432 p[3,5]
   + 0.0786432 p[4,3] + 0.0629145600000068 p[4,4]
   + 0.0314572799999987 p[4,5] + 0.0262144 p[5,3]
   + 0.0209715199999991 p[5,4] + 0.0104857600000005 p[5,5] <= 1
 B_lb_2,_4: 0.262144 p[2,4] + 0.262144 p[2,5] + 0.1572864000000015 p[3,4]
   + 0.157286400000017 p[3,5] + 0.0629145600000068 p[4,4]
   + 0.0629145599999974 p[4,5] + 0.0209715199999991 p[5,4]
   + 0.0209715200000011 p[5,5] >= -0.04109375
 B_ub_2,_4: 0.262144 p[2,4] + 0.262144 p[2,5] + 0.1572864000000015 p[3,4]
   + 0.157286400000017 p[3,5] + 0.0629145600000068 p[4,4]
   + 0.0629145599999974 p[4,5] + 0.0209715199999991 p[5,4]
   + 0.0209715200000011 p[5,5] <= 1
 B_lb_3,_0: 0.512 p[3,0] + 0.1024 p[3,1] + 0.02048 p[3,2] + 0.004096 p[3,3]
   + 0.0008192 p[3,4] + 0.00016384 p[3,5] + 0.4096 p[4,0] + 0.08192 p[4,1]
   + 0.016384 p[4,2] + 0.0032768 p[4,3] + 0.00065536 p[4,4]
   + 0.000131072 p[4,5] + 0.2048 p[5,0] + 0.04096 p[5,1] + 0.008192 p[5,2]
   + 0.0016384 p[5,3] + 0.00032768 p[5,4] + 6.5536e-05 p[5,5]
   >= -0.03089375
 B_ub_3,_0: 0.512 p[3,0] + 0.1024 p[3,1] + 0.02048 p[3,2] + 0.004096 p[3,3]
   + 0.0008192 p[3,4] + 0.00016384 p[3,5] + 0.4096 p[4,0] + 0.08192 p[4,1]
   + 0.016384 p[4,2] + 0.0032768 p[4,3] + 0.00065536 p[4,4]
   + 0.000131072 p[4,5] + 0.2048 p[5,0] + 0.04096 p[5,1] + 0.008192 p[5,2]
   + 0.0016384 p[5,3] + 0.00032768 p[5,4] + 6.5536e-05 p[5,5] <= 0.0164
 B_lb_3,_1: 0.4096 p[3,1] + 0.16384 p[3,2] + 0.049152 p[3,3]
   + 0.0131072 p[3,4] + 0.0032768 p[3,5] + 0.32768 p[4,1] + 0.131072 p[4,2]
   + 0.0393216 p[4,3] + 0.0104857600000011 p[4,4] + 0.00262144 p[4,5]
   + 0.16384 p[5,1] + 0.065536 p[5,2] + 0.0196608 p[5,3]
   + 0.00524288 p[5,4] + 0.00131072 p[5,5] >= -0.03829375
 B_ub_3,_1: 0.4096 p[3,1] + 0.16384 p[3,2] + 0.049152 p[3,3]
   + 0.0131072 p[3,4] + 0.0032768 p[3,5] + 0.32768 p[4,1] + 0.131072 p[4,2]
   + 0.0393216 p[4,3] + 0.0104857600000011 p[4,4] + 0.00262144 p[4,5]
   + 0.16384 p[5,1] + 0.065536 p[5,2] + 0.0196608 p[5,3]
   + 0.00524288 p[5,4] + 0.00131072 p[5,5] <= 0.0066
 B_lb_3,_2: 0.32768 p[3,2] + 0.196608 p[3,3] + 0.0786432 p[3,4]
   + 0.0262144 p[3,5] + 0.262144 p[4,2] + 0.1572864000000015 p[4,3]
   + 0.0629145600000068 p[4,4] + 0.0209715199999991 p[4,5]
   + 0.131072 p[5,2] + 0.0786432 p[5,3] + 0.0314572799999987 p[5,4]
   + 0.0104857600000005 p[5,5] >= -0.04109375
 B_ub_3,_2: 0.32768 p[3,2] + 0.196608 p[3,3] + 0.0786432 p[3,4]
   + 0.0262144 p[3,5] + 0.262144 p[4,2] + 0.1572864000000015 p[4,3]
   + 0.0629145600000068 p[4,4] + 0.0209715199999991 p[4,5]
   + 0.131072 p[5,2] + 0.0786432 p[5,3] + 0.0314572799999987 p[5,4]
   + 0.0104857600000005 p[5,5] <= 1
 B_lb_3,_3: 0.262144 p[3,3] + 0.209715200000002 p[3,4]
   + 0.1048576000000114 p[3,5] + 0.209715200000002 p[4,3]
   + 0.1677721600000182 p[4,4] + 0.0838860799999965 p[4,5]
   + 0.1048576000000114 p[5,3] + 0.0838860799999965 p[5,4]
   + 0.0419430400000021 p[5,5] >= -0.04109375
 B_ub_3,_3: 0.262144 p[3,3] + 0.209715200000002 p[3,4]
   + 0.1048576000000114 p[3,5] + 0.209715200000002 p[4,3]
   + 0.1677721600000182 p[4,4] + 0.0838860799999965 p[4,5]
   + 0.1048576000000114 p[5,3] + 0.0838860799999965 p[5,4]
   + 0.0419430400000021 p[5,5] <= 1
 B_lb_3,_4: 0.209715200000002 p[3,4] + 0.2097152000000228 p[3,5]
   + 0.1677721600000182 p[4,4] + 0.167772159999993 p[4,5]
   + 0.0838860799999965 p[5,4] + 0.0838860800000043 p[5,5] >= -0.04109375
 B_ub_3,_4: 0.209715200000002 p[3,4] + 0.2097152000000228 p[3,5]
   + 0.1677721600000182 p[4,4] + 0.167772159999993 p[4,5]
   + 0.0838860799999965 p[5,4] + 0.0838860800000043 p[5,5] <= 1
 B_lb_4,_0: 0.4096 p[4,0] + 0.08192 p[4,1] + 0.016384 p[4,2]
   + 0.0032768 p[4,3] + 0.00065536 p[4,4] + 0.000131072 p[4,5]
   + 0.4096 p[5,0] + 0.08192 p[5,1] + 0.016384 p[5,2] + 0.0032768 p[5,3]
   + 0.00065536 p[5,4] + 0.000131072 p[5,5] >= -0.03989375
 B_ub_4,_0: 0.4096 p[4,0] + 0.08192 p[4,1] + 0.016384 p[4,2]
   + 0.0032768 p[4,3] + 0.00065536 p[4,4] + 0.000131072 p[4,5]
   + 0.4096 p[5,0] + 0.08192 p[5,1] + 0.016384 p[5,2] + 0.0032768 p[5,3]
   + 0.00065536 p[5,4] + 0.000131072 p[5,5] <= 0.0038
 B_lb_4,_1: 0.32768 p[4,1] + 0.131072 p[4,2] + 0.0393216 p[4,3]
   + 0.0104857600000011 p[4,4] + 0.00262144 p[4,5] + 0.32768 p[5,1]
   + 0.131072 p[5,2] + 0.0393216 p[5,3] + 0.0104857599999996 p[5,4]
   + 0.00262144 p[5,5] >= -0.04109375
 B_ub_4,_1: 0.32768 p[4,1] + 0.131072 p[4,2] + 0.0393216 p[4,3]
   + 0.0104857600000011 p[4,4] + 0.00262144 p[4,5] + 0.32768 p[5,1]
   + 0.131072 p[5,2] + 0.0393216 p[5,3] + 0.0104857599999996 p[5,4]
   + 0.00262144 p[5,5] <= 1
 B_lb_4,_2: 0.262144 p[4,2] + 0.1572864000000015 p[4,3]
   + 0.0629145600000068 p[4,4] + 0.0209715199999991 p[4,5]
   + 0.262144 p[5,2] + 0.157286400000017 p[5,3] + 0.0629145599999974 p[5,4]
   + 0.0209715200000011 p[5,5] >= -0.04109375
 B_ub_4,_2: 0.262144 p[4,2] + 0.1572864000000015 p[4,3]
   + 0.0629145600000068 p[4,4] + 0.0209715199999991 p[4,5]
   + 0.262144 p[5,2] + 0.157286400000017 p[5,3] + 0.0629145599999974 p[5,4]
   + 0.0209715200000011 p[5,5] <= 1
 B_lb_4,_3: 0.209715200000002 p[4,3] + 0.1677721600000182 p[4,4]
   + 0.0838860799999965 p[4,5] + 0.2097152000000228 p[5,3]
   + 0.167772159999993 p[5,4] + 0.0838860800000043 p[5,5] >= -0.04109375
 B_ub_4,_3: 0.209715200000002 p[4,3] + 0.1677721600000182 p[4,4]
   + 0.0838860799999965 p[4,5] + 0.2097152000000228 p[5,3]
   + 0.167772159999993 p[5,4] + 0.0838860800000043 p[5,5] <= 1
 B_lb_4,_4: 0.1677721600000182 p[4,4] + 0.167772159999993 p[4,5]
   + 0.167772159999993 p[5,4] + 0.1677721600000086 p[5,5] >= -0.04109375
 B_ub_4,_4: 0.1677721600000182 p[4,4] + 0.167772159999993 p[4,5]
   + 0.167772159999993 p[5,4] + 0.1677721600000086 p[5,5] <= 1
 B_marginal_lb_0: p1[0] + 0.2 p1[1] + 0.04 p1[2] + 0.008 p1[3]
   + 0.0016 p1[4] + 0.00032 p1[5] >= 0.4062322916666666
 B_marginal_ub_0: p1[0] + 0.2 p1[1] + 0.04 p1[2] + 0.008 p1[3]
   + 0.0016 p1[4] + 0.00032 p1[5] <= 0.565
 B_marginal_lb_1: 0.8 p1[1] + 0.32 p1[2] + 0.096 p1[3] + 0.0256 p1[4]
   + 0.0064 p1[5] >= 0.1730322916666667
 B_marginal_ub_1: 0.8 p1[1] + 0.32 p1[2] + 0.096 p1[3] + 0.0256 p1[4]
   + 0.0064 p1[5] <= 0.329605
 B_marginal_lb_2: 0.64 p1[2] + 0.384 p1[3] + 0.1536 p1[4] + 0.0512 p1[5]
   >= -0.0301677083333333
 B_marginal_ub_2: 0.64 p1[2] + 0.384 p1[3] + 0.1536 p1[4] + 0.0512 p1[5]
   <= 0.1184
 B_marginal_lb_3: 0.512 p1[3] + 0.4096 p1[4] + 0.2048 p1[5]
   >= -0.1161677083333333
 B_marginal_ub_3: 0.512 p1[3] + 0.4096 p1[4] + 0.2048 p1[5] <= 0.0226
 B_marginal_lb_4: 0.4096 p1[4] + 0.4096 p1[5] >= -0.1293677083333333
 B_marginal_ub_4: 0.4096 p1[4] + 0.4096 p1[5] <= 0.0048
 B_marginal_lb_0: p2[0] + 0.2 p2[1] + 0.04 p2[2] + 0.008 p2[3]
   + 0.0016 p2[4] + 0.00032 p2[5] >= 0.416940625
 B_marginal_ub_0: p2[0] + 0.2 p2[1] + 0.04 p2[2] + 0.008 p2[3]
   + 0.0016 p2[4] + 0.00032 p2[5] <= 0.5734
 B_marginal_lb_1: 0.8 p2[1] + 0.32 p2[2] + 0.096 p2[3] + 0.0256 p2[4]
   + 0.0064 p2[5] >= 0.1737356249999999
 B_marginal_ub_1: 0.8 p2[1] + 0.32 p2[2] + 0.096 p2[3] + 0.0256 p2[4]
   + 0.0064 p2[5] <= 0.327605
 B_marginal_lb_2: 0.64 p2[2] + 0.384 p2[3] + 0.1536 p2[4] + 0.0512 p2[5]
   >= -0.035459375
 B_marginal_ub_2: 0.64 p2[2] + 0.384 p2[3] + 0.1536 p2[4] + 0.0512 p2[5]
   <= 0.1096
 B_marginal_lb_3: 0.512 p2[3] + 0.4096 p2[4] + 0.2048 p2[5]
   >= -0.111259375
 B_marginal_ub_3: 0.512 p2[3] + 0.4096 p2[4] + 0.2048 p2[5] <= 0.0252
 B_marginal_lb_4: 0.4096 p2[4] + 0.4096 p2[5] >= -0.127059375
 B_marginal_ub_4: 0.4096 p2[4] + 0.4096 p2[5] <= 0.0044
 frechet_lb_0,_0: - p[0,0] + p1[0] + p2[0] <= 1
 frechet_ub_x1_0: p[0,0] - p1[0] <= 0
 frechet_ub_x2_0: p[0,0] - p2[0] <= 0
 frechet_lb_0,_1: - p[0,1] + p1[0] + p2[1] <= 1
 frechet_ub_x1_0: p[0,1] - p1[0] <= 0
 frechet_ub_x2_1: p[0,1] - p2[1] <= 0
 frechet_lb_0,_2: - p[0,2] + p1[0] + p2[2] <= 1
 frechet_ub_x1_0: p[0,2] - p1[0] <= 0
 frechet_ub_x2_2: p[0,2] - p2[2] <= 0
 frechet_lb_0,_3: - p[0,3] + p1[0] + p2[3] <= 1
 frechet_ub_x1_0: p[0,3] - p1[0] <= 0
 frechet_ub_x2_3: p[0,3] - p2[3] <= 0
 frechet_lb_0,_4: - p[0,4] + p1[0] + p2[4] <= 1
 frechet_ub_x1_0: p[0,4] - p1[0] <= 0
 frechet_ub_x2_4: p[0,4] - p2[4] <= 0
 frechet_lb_0,_5: - p[0,5] + p1[0] + p2[5] <= 1
 frechet_ub_x1_0: p[0,5] - p1[0] <= 0
 frechet_ub_x2_5: p[0,5] - p2[5] <= 0
 frechet_lb_1,_0: - p[1,0] + p1[1] + p2[0] <= 1
 frechet_ub_x1_1: p[1,0] - p1[1] <= 0
 frechet_ub_x2_0: p[1,0] - p2[0] <= 0
 frechet_lb_1,_1: - p[1,1] + p1[1] + p2[1] <= 1
 frechet_ub_x1_1: p[1,1] - p1[1] <= 0
 frechet_ub_x2_1: p[1,1] - p2[1] <= 0
 frechet_lb_1,_2: - p[1,2] + p1[1] + p2[2] <= 1
 frechet_ub_x1_1: p[1,2] - p1[1] <= 0
 frechet_ub_x2_2: p[1,2] - p2[2] <= 0
 frechet_lb_1,_3: - p[1,3] + p1[1] + p2[3] <= 1
 frechet_ub_x1_1: p[1,3] - p1[1] <= 0
 frechet_ub_x2_3: p[1,3] - p2[3] <= 0
 frechet_lb_1,_4: - p[1,4] + p1[1] + p2[4] <= 1
 frechet_ub_x1_1: p[1,4] - p1[1] <= 0
 frechet_ub_x2_4: p[1,4] - p2[4] <= 0
 frechet_lb_1,_5: - p[1,5] + p1[1] + p2[5] <= 1
 frechet_ub_x1_1: p[1,5] - p1[1] <= 0
 frechet_ub_x2_5: p[1,5] - p2[5] <= 0
 frechet_lb_2,_0: - p[2,0] + p1[2] + p2[0] <= 1
 frechet_ub_x1_2: p[2,0] - p1[2] <= 0
 frechet_ub_x2_0: p[2,0] - p2[0] <= 0
 frechet_lb_2,_1: - p[2,1] + p1[2] + p2[1] <= 1
 frechet_ub_x1_2: p[2,1] - p1[2] <= 0
 frechet_ub_x2_1: p[2,1] - p2[1] <= 0
 frechet_lb_2,_2: - p[2,2] + p1[2] + p2[2] <= 1
 frechet_ub_x1_2: p[2,2] - p1[2] <= 0
 frechet_ub_x2_2: p[2,2] - p2[2] <= 0
 frechet_lb_2,_3: - p[2,3] + p1[2] + p2[3] <= 1
 frechet_ub_x1_2: p[2,3] - p1[2] <= 0
 frechet_ub_x2_3: p[2,3] - p2[3] <= 0
 frechet_lb_2,_4: - p[2,4] + p1[2] + p2[4] <= 1
 frechet_ub_x1_2: p[2,4] - p1[2] <= 0
 frechet_ub_x2_4: p[2,4] - p2[4] <= 0
 frechet_lb_2,_5: - p[2,5] + p1[2] + p2[5] <= 1
 frechet_ub_x1_2: p[2,5] - p1[2] <= 0
 frechet_ub_x2_5: p[2,5] - p2[5] <= 0
 frechet_lb_3,_0: - p[3,0] + p1[3] + p2[0] <= 1
 frechet_ub_x1_3: p[3,0] - p1[3] <= 0
 frechet_ub_x2_0: p[3,0] - p2[0] <= 0
 frechet_lb_3,_1: - p[3,1] + p1[3] + p2[1] <= 1
 frechet_ub_x1_3: p[3,1] - p1[3] <= 0
 frechet_ub_x2_1: p[3,1] - p2[1] <= 0
 frechet_lb_3,_2: - p[3,2] + p1[3] + p2[2] <= 1
 frechet_ub_x1_3: p[3,2] - p1[3] <= 0
 frechet_ub_x2_2: p[3,2] - p2[2] <= 0
 frechet_lb_3,_3: - p[3,3] + p1[3] + p2[3] <= 1
 frechet_ub_x1_3: p[3,3] - p1[3] <= 0
 frechet_ub_x2_3: p[3,3] - p2[3] <= 0
 frechet_lb_3,_4: - p[3,4] + p1[3] + p2[4] <= 1
 frechet_ub_x1_3: p[3,4] - p1[3] <= 0
 frechet_ub_x2_4: p[3,4] - p2[4] <= 0
 frechet_lb_3,_5: - p[3,5] + p1[3] + p2[5] <= 1
 frechet_ub_x1_3: p[3,5] - p1[3] <= 0
 frechet_ub_x2_5: p[3,5] - p2[5] <= 0
 frechet_lb_4,_0: - p[4,0] + p1[4] + p2[0] <= 1
 frechet_ub_x1_4: p[4,0] - p1[4] <= 0
 frechet_ub_x2_0: p[4,0] - p2[0] <= 0
 frechet_lb_4,_1: - p[4,1] + p1[4] + p2[1] <= 1
 frechet_ub_x1_4: p[4,1] - p1[4] <= 0
 frechet_ub_x2_1: p[4,1] - p2[1] <= 0
 frechet_lb_4,_2: - p[4,2] + p1[4] + p2[2] <= 1
 frechet_ub_x1_4: p[4,2] - p1[4] <= 0
 frechet_ub_x2_2: p[4,2] - p2[2] <= 0
 frechet_lb_4,_3: - p[4,3] + p1[4] + p2[3] <= 1
 frechet_ub_x1_4: p[4,3] - p1[4] <= 0
 frechet_ub_x2_3: p[4,3] - p2[3] <= 0
 frechet_lb_4,_4: - p[4,4] + p1[4] + p2[4] <= 1
 frechet_ub_x1_4: p[4,4] - p1[4] <= 0
 frechet_ub_x2_4: p[4,4] - p2[4] <= 0
 frechet_lb_4,_5: - p[4,5] + p1[4] + p2[5] <= 1
 frechet_ub_x1_4: p[4,5] - p1[4] <= 0
 frechet_ub_x2_5: p[4,5] - p2[5] <= 0
 frechet_lb_5,_0: - p[5,0] + p1[5] + p2[0] <= 1
 frechet_ub_x1_5: p[5,0] - p1[5] <= 0
 frechet_ub_x2_0: p[5,0] - p2[0] <= 0
 frechet_lb_5,_1: - p[5,1] + p1[5] + p2[1] <= 1
 frechet_ub_x1_5: p[5,1] - p1[5] <= 0
 frechet_ub_x2_1: p[5,1] - p2[1] <= 0
 frechet_lb_5,_2: - p[5,2] + p1[5] + p2[2] <= 1
 frechet_ub_x1_5: p[5,2] - p1[5] <= 0
 frechet_ub_x2_2: p[5,2] - p2[2] <= 0
 frechet_lb_5,_3: - p[5,3] + p1[5] + p2[3] <= 1
 frechet_ub_x1_5: p[5,3] - p1[5] <= 0
 frechet_ub_x2_3: p[5,3] - p2[3] <= 0
 frechet_lb_5,_4: - p[5,4] + p1[5] + p2[4] <= 1
 frechet_ub_x1_5: p[5,4] - p1[5] <= 0
 frechet_ub_x2_4: p[5,4] - p2[4] <= 0
 frechet_lb_5,_5: - p[5,5] + p1[5] + p2[5] <= 1
 frechet_ub_x1_5: p[5,5] - p1[5] <= 0
 frechet_ub_x2_5: p[5,5] - p2[5] <= 0
 Distribution: p[0,0] + p[0,1] + p[0,2] + p[0,3] + p[0,4] + p[0,5] + p[1,0]
   + p[1,1] + p[1,2] + p[1,3] + p[1,4] + p[1,5] + p[2,0] + p[2,1] + p[2,2]
   + p[2,3] + p[2,4] + p[2,5] + p[3,0] + p[3,1] + p[3,2] + p[3,3] + p[3,4]
   + p[3,5] + p[4,0] + p[4,1] + p[4,2] + p[4,3] + p[4,4] + p[4,5] + p[5,0]
   + p[5,1] + p[5,2] + p[5,3] + p[5,4] + p[5,5] <= 1
 Distribution_x1: p1[0] + p1[1] + p1[2] + p1[3] + p1[4] + p1[5] <= 1
 Distribution_x2: p2[0] + p2[1] + p2[2] + p2[3] + p2[4] + p2[5] <= 1
 Equation_0,_0: [ - p[0,0] * k_tx_1 - p[0,0] * k_tx_2 + p[0,1] * k_deg_2
   + p[1,0] * k_deg_1 + p[1,1] * k_reg ] = 0
 Equation_0,_1: [ p[0,0] * k_tx_2 - p[0,1] * k_tx_1 - p[0,1] * k_tx_2
   - p[0,1] * k_deg_2 + 2 p[0,2] * k_deg_2 + p[1,1] * k_deg_1
   + 2 p[1,2] * k_reg ] = 0
 Equation_0,_2: [ p[0,1] * k_tx_2 - p[0,2] * k_tx_1 - p[0,2] * k_tx_2
   - 2 p[0,2] * k_deg_2 + 3 p[0,3] * k_deg_2 + p[1,2] * k_deg_1
   + 3 p[1,3] * k_reg ] = 0
 Equation_0,_3: [ p[0,2] * k_tx_2 - p[0,3] * k_tx_1 - p[0,3] * k_tx_2
   - 3 p[0,3] * k_deg_2 + 4 p[0,4] * k_deg_2 + p[1,3] * k_deg_1
   + 4 p[1,4] * k_reg ] = 0
 Equation_0,_4: [ p[0,3] * k_tx_2 - p[0,4] * k_tx_1 - p[0,4] * k_tx_2
   - 4 p[0,4] * k_deg_2 + 5 p[0,5] * k_deg_2 + p[1,4] * k_deg_1
   + 5 p[1,5] * k_reg ] = 0
 Equation_1,_0: [ p[0,0] * k_tx_1 - p[1,0] * k_tx_1 - p[1,0] * k_tx_2
   - p[1,0] * k_deg_1 + p[1,1] * k_deg_2 + 2 p[2,0] * k_deg_1
   + 2 p[2,1] * k_reg ] = 0
 Equation_1,_1: [ p[0,1] * k_tx_1 + p[1,0] * k_tx_2 - p[1,1] * k_tx_1
   - p[1,1] * k_tx_2 - p[1,1] * k_deg_1 - p[1,1] * k_deg_2 - p[1,1] * k_reg
   + 2 p[1,2] * k_deg_2 + 2 p[2,1] * k_deg_1 + 4 p[2,2] * k_reg ] = 0
 Equation_1,_2: [ p[0,2] * k_tx_1 + p[1,1] * k_tx_2 - p[1,2] * k_tx_1
   - p[1,2] * k_tx_2 - p[1,2] * k_deg_1 - 2 p[1,2] * k_deg_2
   - 2 p[1,2] * k_reg + 3 p[1,3] * k_deg_2 + 2 p[2,2] * k_deg_1
   + 6 p[2,3] * k_reg ] = 0
 Equation_1,_3: [ p[0,3] * k_tx_1 + p[1,2] * k_tx_2 - p[1,3] * k_tx_1
   - p[1,3] * k_tx_2 - p[1,3] * k_deg_1 - 3 p[1,3] * k_deg_2
   - 3 p[1,3] * k_reg + 4 p[1,4] * k_deg_2 + 2 p[2,3] * k_deg_1
   + 8 p[2,4] * k_reg ] = 0
 Equation_1,_4: [ p[0,4] * k_tx_1 + p[1,3] * k_tx_2 - p[1,4] * k_tx_1
   - p[1,4] * k_tx_2 - p[1,4] * k_deg_1 - 4 p[1,4] * k_deg_2
   - 4 p[1,4] * k_reg + 5 p[1,5] * k_deg_2 + 2 p[2,4] * k_deg_1
   + 10 p[2,5] * k_reg ] = 0
 Equation_2,_0: [ p[1,0] * k_tx_1 - p[2,0] * k_tx_1 - p[2,0] * k_tx_2
   - 2 p[2,0] * k_deg_1 + p[2,1] * k_deg_2 + 3 p[3,0] * k_deg_1
   + 3 p[3,1] * k_reg ] = 0
 Equation_2,_1: [ p[1,1] * k_tx_1 + p[2,0] * k_tx_2 - p[2,1] * k_tx_1
   - p[2,1] * k_tx_2 - 2 p[2,1] * k_deg_1 - p[2,1] * k_deg_2
   - 2 p[2,1] * k_reg + 2 p[2,2] * k_deg_2 + 3 p[3,1] * k_deg_1
   + 6 p[3,2] * k_reg ] = 0
 Equation_2,_2: [ p[1,2] * k_tx_1 + p[2,1] * k_tx_2 - p[2,2] * k_tx_1
   - p[2,2] * k_tx_2 - 2 p[2,2] * k_deg_1 - 2 p[2,2] * k_deg_2
   - 4 p[2,2] * k_reg + 3 p[2,3] * k_deg_2 + 3 p[3,2] * k_deg_1
   + 9 p[3,3] * k_reg ] = 0
 Equation_2,_3: [ p[1,3] * k_tx_1 + p[2,2] * k_tx_2 - p[2,3] * k_tx_1
   - p[2,3] * k_tx_2 - 2 p[2,3] * k_deg_1 - 3 p[2,3] * k_deg_2
   - 6 p[2,3] * k_reg + 4 p[2,4] * k_deg_2 + 3 p[3,3] * k_deg_1
   + 12 p[3,4] * k_reg ] = 0
 Equation_2,_4: [ p[1,4] * k_tx_1 + p[2,3] * k_tx_2 - p[2,4] * k_tx_1
   - p[2,4] * k_tx_2 - 2 p[2,4] * k_deg_1 - 4 p[2,4] * k_deg_2
   - 8 p[2,4] * k_reg + 5 p[2,5] * k_deg_2 + 3 p[3,4] * k_deg_1
   + 15 p[3,5] * k_reg ] = 0
 Equation_3,_0: [ p[2,0] * k_tx_1 - p[3,0] * k_tx_1 - p[3,0] * k_tx_2
   - 3 p[3,0] * k_deg_1 + p[3,1] * k_deg_2 + 4 p[4,0] * k_deg_1
   + 4 p[4,1] * k_reg ] = 0
 Equation_3,_1: [ p[2,1] * k_tx_1 + p[3,0] * k_tx_2 - p[3,1] * k_tx_1
   - p[3,1] * k_tx_2 - 3 p[3,1] * k_deg_1 - p[3,1] * k_deg_2
   - 3 p[3,1] * k_reg + 2 p[3,2] * k_deg_2 + 4 p[4,1] * k_deg_1
   + 8 p[4,2] * k_reg ] = 0
 Equation_3,_2: [ p[2,2] * k_tx_1 + p[3,1] * k_tx_2 - p[3,2] * k_tx_1
   - p[3,2] * k_tx_2 - 3 p[3,2] * k_deg_1 - 2 p[3,2] * k_deg_2
   - 6 p[3,2] * k_reg + 3 p[3,3] * k_deg_2 + 4 p[4,2] * k_deg_1
   + 12 p[4,3] * k_reg ] = 0
 Equation_3,_3: [ p[2,3] * k_tx_1 + p[3,2] * k_tx_2 - p[3,3] * k_tx_1
   - p[3,3] * k_tx_2 - 3 p[3,3] * k_deg_1 - 3 p[3,3] * k_deg_2
   - 9 p[3,3] * k_reg + 4 p[3,4] * k_deg_2 + 4 p[4,3] * k_deg_1
   + 16 p[4,4] * k_reg ] = 0
 Equation_3,_4: [ p[2,4] * k_tx_1 + p[3,3] * k_tx_2 - p[3,4] * k_tx_1
   - p[3,4] * k_tx_2 - 3 p[3,4] * k_deg_1 - 4 p[3,4] * k_deg_2
   - 12 p[3,4] * k_reg + 5 p[3,5] * k_deg_2 + 4 p[4,4] * k_deg_1
   + 20 p[4,5] * k_reg ] = 0
 Equation_4,_0: [ p[3,0] * k_tx_1 - p[4,0] * k_tx_1 - p[4,0] * k_tx_2
   - 4 p[4,0] * k_deg_1 + p[4,1] * k_deg_2 + 5 p[5,0] * k_deg_1
   + 5 p[5,1] * k_reg ] = 0
 Equation_4,_1: [ p[3,1] * k_tx_1 + p[4,0] * k_tx_2 - p[4,1] * k_tx_1
   - p[4,1] * k_tx_2 - 4 p[4,1] * k_deg_1 - p[4,1] * k_deg_2
   - 4 p[4,1] * k_reg + 2 p[4,2] * k_deg_2 + 5 p[5,1] * k_deg_1
   + 10 p[5,2] * k_reg ] = 0
 Equation_4,_2: [ p[3,2] * k_tx_1 + p[4,1] * k_tx_2 - p[4,2] * k_tx_1
   - p[4,2] * k_tx_2 - 4 p[4,2] * k_deg_1 - 2 p[4,2] * k_deg_2
   - 8 p[4,2] * k_reg + 3 p[4,3] * k_deg_2 + 5 p[5,2] * k_deg_1
   + 15 p[5,3] * k_reg ] = 0
 Equation_4,_3: [ p[3,3] * k_tx_1 + p[4,2] * k_tx_2 - p[4,3] * k_tx_1
   - p[4,3] * k_tx_2 - 4 p[4,3] * k_deg_1 - 3 p[4,3] * k_deg_2
   - 12 p[4,3] * k_reg + 4 p[4,4] * k_deg_2 + 5 p[5,3] * k_deg_1
   + 20 p[5,4] * k_reg ] = 0
 Equation_4,_4: [ p[3,4] * k_tx_1 + p[4,3] * k_tx_2 - p[4,4] * k_tx_1
   - p[4,4] * k_tx_2 - 4 p[4,4] * k_deg_1 - 4 p[4,4] * k_deg_2
   - 16 p[4,4] * k_reg + 5 p[4,5] * k_deg_2 + 5 p[5,4] * k_deg_1
   + 25 p[5,5] * k_reg ] = 0
Bounds
 p[0,0] <= 1
 p[0,1] <= 1
 p[0,2] <= 1
 p[0,3] <= 1
 p[0,4] <= 1
 p[0,5] <= 1
 p[1,0] <= 1
 p[1,1] <= 1
 p[1,2] <= 1
 p[1,3] <= 1
 p[1,4] <= 1
 p[1,5] <= 1
 p[2,0] <= 1
 p[2,1] <= 1
 p[2,2] <= 1
 p[2,3] <= 1
 p[2,4] <= 1
 p[2,5] <= 1
 p[3,0] <= 1
 p[3,1] <= 1
 p[3,2] <= 1
 p[3,3] <= 1
 p[3,4] <= 1
 p[3,5] <= 1
 p[4,0] <= 1
 p[4,1] <= 1
 p[4,2] <= 1
 p[4,3] <= 1
 p[4,4] <= 1
 p[4,5] <= 1
 p[5,0] <= 1
 p[5,1] <= 1
 p[5,2] <= 1
 p[5,3] <= 1
 p[5,4] <= 1
 p[5,5] <= 1
 p1[0] <= 1
 p1[1] <= 1
 p1[2] <= 1
 p1[3] <= 1
 p1[4] <= 1
 p1[5] <= 1
 p2[0] <= 1
 p2[1] <= 1
 p2[2] <= 1
 p2[3] <= 1
 p2[4] <= 1
 p2[5] <= 1
 k_tx_1 <= 10
 k_tx_2 <= 10
 k_deg_1 <= 10
 k_deg_2 <= 10
 k_reg <= 10
End
